
************************************************************
 TOWR - Trajectory Optimization for Walking Robots (v1.4)
                © Alexander W. Winkler
           https://github.com/ethz-adrl/towr
************************************************************

1.008
-1.8419867324346432e-44
0.24
0
0
0.24
0
0
0
0.21
0.19
0.0
0.21
-0.19
0.0
-0.21
0.19
0.0
-0.21
-0.19
0.0
0.01
ee start pos x -> 0.21
ee start pos y -> 0.19
ee start pos z -> 0
ee start pos x -> 0.21
ee start pos y -> -0.19
ee start pos z -> 0
ee start pos x -> -0.21
ee start pos y -> 0.19
ee start pos z -> 0
ee start pos x -> -0.21
ee start pos y -> -0.19
ee start pos z -> 0
start pos x -> 0
start pos y -> 0
start pos z -> 0.24
goal pos x -> 1.008
goal pos y -> -1.84199e-44
goal pos z -> 0.24
ee start pos x -> 0.21
ee start pos y -> 0.19
ee start pos z -> 0
ee start pos x -> 0.21
ee start pos y -> -0.19
ee start pos z -> 0
ee start pos x -> -0.21
ee start pos y -> 0.19
ee start pos z -> 0
ee start pos x -> -0.21
ee start pos y -> -0.19
ee start pos z -> 0
SOLVER RUN TIME : 15

******************************************************************************
This program contains Ipopt, a library for large-scale nonlinear optimization.
 Ipopt is released as open source code under the Eclipse Public License (EPL).
         For more information visit http://projects.coin-or.org/Ipopt
******************************************************************************

This is Ipopt version 3.11.9, running with linear solver mumps.
NOTE: Other linear solvers might be more efficient (see Ipopt documentation).

Number of nonzeros in equality constraint Jacobian...:    11557
Number of nonzeros in inequality constraint Jacobian.:    20605
Number of nonzeros in Lagrangian Hessian.............:        0

Total number of variables............................:     1005
                     variables with only lower bounds:        0
                variables with lower and upper bounds:        0
                     variables with only upper bounds:        0
Total number of equality constraints.................:      706
Total number of inequality constraints...............:     1024
        inequality constraints with only lower bounds:      112
   inequality constraints with lower and upper bounds:      816
        inequality constraints with only upper bounds:       96

iter    objective    inf_pr   inf_du lg(mu)  ||d||  lg(rg) alpha_du alpha_pr  ls
   0  0.0000000e+00 2.42e+01 1.00e+00   0.0 0.00e+00    -  0.00e+00 0.00e+00   0
   1  0.0000000e+00 2.39e+01 2.11e+00  -0.7 9.12e+00    -  2.41e-02 1.38e-02f  1
   2  0.0000000e+00 2.09e+01 1.11e+01  -0.5 9.46e+00    -  7.88e-02 1.23e-01f  1
   3  0.0000000e+00 1.87e+01 2.96e+01  -0.5 7.58e+00    -  4.09e-01 1.08e-01h  1
   4  0.0000000e+00 1.65e+01 5.09e+02   0.5 1.58e+01    -  9.90e-01 1.16e-01f  1
   5  0.0000000e+00 1.02e+01 5.78e+02   0.7 1.27e+01    -  7.47e-01 3.83e-01h  1
   6  0.0000000e+00 7.99e+00 1.97e+03   1.3 1.16e+01    -  5.53e-01 2.16e-01f  1
   7  0.0000000e+00 4.13e+00 3.12e+03   1.3 9.17e+00    -  1.00e+00 4.82e-01h  1
   8  0.0000000e+00 8.06e-02 7.05e+02   1.2 5.29e+00    -  9.80e-01 1.00e+00h  1
   9  0.0000000e+00 3.66e-03 4.84e+01   0.8 8.94e-01    -  9.92e-01 1.00e+00f  1
iter    objective    inf_pr   inf_du lg(mu)  ||d||  lg(rg) alpha_du alpha_pr  ls
  10  0.0000000e+00 3.27e-05 5.14e+01  -0.3 8.88e-02    -  9.83e-01 1.00e+00h  1
  11  0.0000000e+00 8.19e-07 5.01e-03  -1.9 5.01e-03    -  1.00e+00 1.00e+00h  1
  12  0.0000000e+00 8.36e-09 7.94e-02  -7.9 3.31e-04    -  9.87e-01 1.00e+00h  1
  13  0.0000000e+00 2.05e-09 7.45e-05  -5.1 9.40e-05    -  1.00e+00 1.00e+00h  1

Number of Iterations....: 13

                                   (scaled)                 (unscaled)
Objective...............:   0.0000000000000000e+00    0.0000000000000000e+00
Dual infeasibility......:   7.4474744860465142e-05    7.4474744860465142e-05
Constraint violation....:   2.0491166541347638e-09    2.0491166541347638e-09
Complementarity.........:   9.5009466401047616e-06    9.5009466401047616e-06
Overall NLP error.......:   7.4474744860465142e-05    7.4474744860465142e-05


Number of objective function evaluations             = 14
Number of objective gradient evaluations             = 14
Number of equality constraint evaluations            = 14
Number of inequality constraint evaluations          = 14
Number of equality constraint Jacobian evaluations   = 14
Number of inequality constraint Jacobian evaluations = 14
Number of Lagrangian Hessian evaluations             = 0
Total CPU secs in IPOPT (w/o function evaluations)   =      0.372
Total CPU secs in NLP function evaluations           =      0.790

EXIT: Optimal Solution Found.
status -> 0

************************************************************
    IFOPT - Interface to Nonlinear Optimizers (v2.0)
                © Alexander W. Winkler
           https://github.com/ethz-adrl/ifopt
************************************************************
Legend:
c - number of variables, constraints or cost terms
i - indices of this set in overall problem
v - number of [violated variable- or constraint-bounds] or [cost term value]

                                   c             i             v 
variable-sets:
   base-lin                       306        0....305[0m           0[0m
   base-ang                       306      306....611[0m           0[0m
   ee-motion_0                     35      612....646[0m           0[0m
   ee-motion_1                     35      647....681[0m           0[0m
   ee-motion_2                     35      682....716[0m           0[0m
   ee-motion_3                     35      717....751[0m           0[0m
   ee-force_0                      72      752....823[0m           0[0m
   ee-force_1                      72      824....895[0m           0[0m
   ee-force_2                      72      896....967[0m           0[0m
   ee-force_3                      72      968...1039[0m           0[0m

constraint-sets:
   terrain-ee-motion_0             13        0.....12[0m           0[0m
   terrain-ee-motion_1             13       13.....25[0m           0[0m
   terrain-ee-motion_2             13       26.....38[0m           0[0m
   terrain-ee-motion_3             13       39.....51[0m           0[0m
   dynamic                        312       52....363[0m           0[0m
   splineacc-base-lin             147      364....510[0m           0[0m
   splineacc-base-ang             147      511....657[0m           0[0m
   rangeofmotion-0                192      658....849[0m           0[0m
   rangeofmotion-1                192      850...1041[0m           0[0m
   rangeofmotion-2                192     1042...1233[0m           0[0m
   rangeofmotion-3                192     1234...1425[0m           0[0m
   force-ee-force_0                60     1426...1485[0m           0[0m
   force-ee-force_1                60     1486...1545[0m           0[0m
   force-ee-force_2                60     1546...1605[0m           0[0m
   force-ee-force_3                60     1606...1665[0m           0[0m
   swing-ee-motion_0               16     1666...1681[0m           0[0m
   swing-ee-motion_1               16     1682...1697[0m           0[0m
   swing-ee-motion_2               16     1698...1713[0m           0[0m
   swing-ee-motion_3               16     1714...1729[0m           0[0m

cost-terms:


************************************************************
 TOWR - Trajectory Optimization for Walking Robots (v1.4)
                © Alexander W. Winkler
           https://github.com/ethz-adrl/towr
************************************************************

1.7640000000000005
0.0
0.24
0.663065
-0.0171272
0.379392
-0.0173573
-0.00533814
-0.145138
0.899506
0.0658181
0.13
0.921391
-0.241068
0.13
0.422726
0.226381
0.13
0.414528
-0.102458
0.13
3.757
s_vel
0.170773
0.01
-t
3.757
ee start pos x -> 0.899506
ee start pos y -> 0.0658181
ee start pos z -> 0.13
ee start pos x -> 0.921391
ee start pos y -> -0.241068
ee start pos z -> 0.13
ee start pos x -> 0.422726
ee start pos y -> 0.226381
ee start pos z -> 0.13
ee start pos x -> 0.414528
ee start pos y -> -0.102458
ee start pos z -> 0.13
start pos x -> 0.663065
start pos y -> -0.0171272
start pos z -> 0.379392
goal pos x -> 1.764
goal pos y -> 0
goal pos z -> 0.24
ee start pos x -> 0.899506
ee start pos y -> 0.0658181
ee start pos z -> 0.13
ee start pos x -> 0.921391
ee start pos y -> -0.241068
ee start pos z -> 0.13
ee start pos x -> 0.422726
ee start pos y -> 0.226381
ee start pos z -> 0.13
ee start pos x -> 0.414528
ee start pos y -> -0.102458
ee start pos z -> 0.13
SOLVER RUN TIME : 15

******************************************************************************
This program contains Ipopt, a library for large-scale nonlinear optimization.
 Ipopt is released as open source code under the Eclipse Public License (EPL).
         For more information visit http://projects.coin-or.org/Ipopt
******************************************************************************

This is Ipopt version 3.11.9, running with linear solver mumps.
NOTE: Other linear solvers might be more efficient (see Ipopt documentation).

Number of nonzeros in equality constraint Jacobian...:    11557
Number of nonzeros in inequality constraint Jacobian.:    20605
Number of nonzeros in Lagrangian Hessian.............:        0

Total number of variables............................:     1005
                     variables with only lower bounds:        0
                variables with lower and upper bounds:        0
                     variables with only upper bounds:        0
Total number of equality constraints.................:      706
Total number of inequality constraints...............:     1024
        inequality constraints with only lower bounds:      112
   inequality constraints with lower and upper bounds:      816
        inequality constraints with only upper bounds:       96

iter    objective    inf_pr   inf_du lg(mu)  ||d||  lg(rg) alpha_du alpha_pr  ls
   0  0.0000000e+00 2.64e+01 1.00e+00   0.0 0.00e+00    -  0.00e+00 0.00e+00   0
   1  0.0000000e+00 2.61e+01 4.19e+00  -0.7 8.46e+00    -  2.96e-02 1.09e-02f  1
   2  0.0000000e+00 2.35e+01 3.34e+00  -0.7 8.52e+00    -  8.21e-02 1.00e-01f  1
   3  0.0000000e+00 2.07e+01 2.53e+01  -0.7 7.48e+00    -  2.76e-01 1.18e-01h  1
   4  0.0000000e+00 1.80e+01 1.35e+02   0.1 1.07e+01    -  4.50e-01 1.32e-01f  1
   5  0.0000000e+00 1.31e+01 3.82e+02   0.2 1.02e+01    -  9.91e-01 2.72e-01h  1
   6  0.0000000e+00 9.36e+00 6.78e+02   0.4 9.08e+00    -  1.00e+00 2.85e-01h  1
   7  0.0000000e+00 5.50e+00 1.02e+03   0.3 6.75e+00    -  9.99e-01 4.12e-01h  1
   8  0.0000000e+00 1.65e+00 5.00e+02   0.6 5.79e+00    -  1.00e+00 7.00e-01h  1
   9  0.0000000e+00 1.45e-02 3.27e+01  -0.2 1.41e+00    -  9.99e-01 1.00e+00h  1
iter    objective    inf_pr   inf_du lg(mu)  ||d||  lg(rg) alpha_du alpha_pr  ls
  10  0.0000000e+00 3.00e-05 3.22e+00  -1.5 3.23e-02    -  9.96e-01 1.00e+00h  1
  11  0.0000000e+00 7.69e-08 1.45e-03  -3.1 1.45e-03    -  1.00e+00 1.00e+00h  1
  12  0.0000000e+00 9.02e-10 9.01e-04  -9.1 3.31e-07    -  9.99e-01 1.00e+00h  1

Number of Iterations....: 12

                                   (scaled)                 (unscaled)
Objective...............:   0.0000000000000000e+00    0.0000000000000000e+00
Dual infeasibility......:   9.0102262056252554e-04    9.0102262056252554e-04
Constraint violation....:   2.5454038876659979e-10    9.0196827784438938e-10
Complementarity.........:   2.1404580852905293e-06    2.1404580852905293e-06
Overall NLP error.......:   9.0102262056252554e-04    9.0102262056252554e-04


Number of objective function evaluations             = 13
Number of objective gradient evaluations             = 13
Number of equality constraint evaluations            = 13
Number of inequality constraint evaluations          = 13
Number of equality constraint Jacobian evaluations   = 13
Number of inequality constraint Jacobian evaluations = 13
Number of Lagrangian Hessian evaluations             = 0
Total CPU secs in IPOPT (w/o function evaluations)   =      0.370
Total CPU secs in NLP function evaluations           =      0.766

EXIT: Optimal Solution Found.
status -> 0

************************************************************
    IFOPT - Interface to Nonlinear Optimizers (v2.0)
                © Alexander W. Winkler
           https://github.com/ethz-adrl/ifopt
************************************************************
Legend:
c - number of variables, constraints or cost terms
i - indices of this set in overall problem
v - number of [violated variable- or constraint-bounds] or [cost term value]

                                   c             i             v 
variable-sets:
   base-lin                       306        0....305[0m           0[0m
   base-ang                       306      306....611[0m           0[0m
   ee-motion_0                     35      612....646[0m           0[0m
   ee-motion_1                     35      647....681[0m           0[0m
   ee-motion_2                     35      682....716[0m           0[0m
   ee-motion_3                     35      717....751[0m           0[0m
   ee-force_0                      72      752....823[0m           0[0m
   ee-force_1                      72      824....895[0m           0[0m
   ee-force_2                      72      896....967[0m           0[0m
   ee-force_3                      72      968...1039[0m           0[0m

constraint-sets:
   terrain-ee-motion_0             13        0.....12[0m           0[0m
   terrain-ee-motion_1             13       13.....25[0m           0[0m
   terrain-ee-motion_2             13       26.....38[0m           0[0m
   terrain-ee-motion_3             13       39.....51[0m           0[0m
   dynamic                        312       52....363[0m           0[0m
   splineacc-base-lin             147      364....510[0m           0[0m
   splineacc-base-ang             147      511....657[0m           0[0m
   rangeofmotion-0                192      658....849[0m           0[0m
   rangeofmotion-1                192      850...1041[0m           0[0m
   rangeofmotion-2                192     1042...1233[0m           0[0m
   rangeofmotion-3                192     1234...1425[0m           0[0m
   force-ee-force_0                60     1426...1485[0m           0[0m
   force-ee-force_1                60     1486...1545[0m           0[0m
   force-ee-force_2                60     1546...1605[0m           0[0m
   force-ee-force_3                60     1606...1665[0m           0[0m
   swing-ee-motion_0               16     1666...1681[0m           0[0m
   swing-ee-motion_1               16     1682...1697[0m           0[0m
   swing-ee-motion_2               16     1698...1713[0m           0[0m
   swing-ee-motion_3               16     1714...1729[0m           0[0m

cost-terms:


************************************************************
 TOWR - Trajectory Optimization for Walking Robots (v1.4)
                © Alexander W. Winkler
           https://github.com/ethz-adrl/towr
************************************************************

2.2684032202768973
0.0
0.24
1.19939
-0.00986578
0.281805
-0.0355879
0.213069
-0.243566
1.39694
0.0425003
0
1.38549
-0.258532
0
0.947775
0.233662
0.13
0.919368
-0.0790395
0.13
6.295
s_vel
0.0310185
0.01
-t
6.295
ee start pos x -> 1.39694
ee start pos y -> 0.0425003
ee start pos z -> 0
ee start pos x -> 1.38549
ee start pos y -> -0.258532
ee start pos z -> 0
ee start pos x -> 0.947775
ee start pos y -> 0.233662
ee start pos z -> 0.13
ee start pos x -> 0.919368
ee start pos y -> -0.0790395
ee start pos z -> 0.13
start pos x -> 1.19939
start pos y -> -0.00986578
start pos z -> 0.281805
goal pos x -> 2.2684
goal pos y -> 0
goal pos z -> 0.24
ee start pos x -> 1.39694
ee start pos y -> 0.0425003
ee start pos z -> 0
ee start pos x -> 1.38549
ee start pos y -> -0.258532
ee start pos z -> 0
ee start pos x -> 0.947775
ee start pos y -> 0.233662
ee start pos z -> 0.13
ee start pos x -> 0.919368
ee start pos y -> -0.0790395
ee start pos z -> 0.13
SOLVER RUN TIME : 15

******************************************************************************
This program contains Ipopt, a library for large-scale nonlinear optimization.
 Ipopt is released as open source code under the Eclipse Public License (EPL).
         For more information visit http://projects.coin-or.org/Ipopt
******************************************************************************

This is Ipopt version 3.11.9, running with linear solver mumps.
NOTE: Other linear solvers might be more efficient (see Ipopt documentation).

Number of nonzeros in equality constraint Jacobian...:    11557
Number of nonzeros in inequality constraint Jacobian.:    20605
Number of nonzeros in Lagrangian Hessian.............:        0

Total number of variables............................:     1005
                     variables with only lower bounds:        0
                variables with lower and upper bounds:        0
                     variables with only upper bounds:        0
Total number of equality constraints.................:      706
Total number of inequality constraints...............:     1024
        inequality constraints with only lower bounds:      112
   inequality constraints with lower and upper bounds:      816
        inequality constraints with only upper bounds:       96

iter    objective    inf_pr   inf_du lg(mu)  ||d||  lg(rg) alpha_du alpha_pr  ls
   0  0.0000000e+00 2.57e+01 1.00e+00   0.0 0.00e+00    -  0.00e+00 0.00e+00   0
   1  0.0000000e+00 2.51e+01 9.81e-01  -4.6 9.05e+00    -  2.37e-02 2.14e-02h  1
   2  0.0000000e+00 2.49e+01 2.61e+00  -4.6 8.62e+00    -  2.15e-02 9.68e-03h  1
   3  0.0000000e+00 2.44e+01 2.88e+00  -4.6 8.39e+00    -  2.05e-02 1.92e-02h  1
   4  0.0000000e+00 2.37e+01 3.35e+00  -4.6 8.12e+00    -  3.06e-02 2.83e-02h  1
   5  0.0000000e+00 2.30e+01 7.07e+00  -4.6 7.83e+00    -  4.84e-02 3.08e-02h  1
   6  0.0000000e+00 2.16e+01 3.80e+00  -4.6 7.53e+00    -  3.79e-02 5.91e-02h  1
   7  0.0000000e+00 2.06e+01 5.58e+00  -4.7 7.00e+00    -  5.94e-02 4.53e-02h  1
   8  0.0000000e+00 1.92e+01 8.92e+00  -4.7 6.70e+00    -  6.46e-02 6.72e-02h  1
   9  0.0000000e+00 1.92e+01 9.76e+01  -4.7 6.28e+00    -  7.62e-02 3.89e-03h  1
iter    objective    inf_pr   inf_du lg(mu)  ||d||  lg(rg) alpha_du alpha_pr  ls
  10  0.0000000e+00 1.92e+01 2.10e+05  -4.7 6.34e+00    -  1.06e-01 5.41e-05h  1
  11  0.0000000e+00 1.86e+01 3.27e+05  -4.8 6.40e+00    -  4.61e-02 2.86e-02h  1
  12  0.0000000e+00 1.86e+01 3.34e+05  -0.9 7.51e+01    -  3.81e-03 2.70e-03f  1
  13  0.0000000e+00 1.81e+01 3.32e+05  -4.8 6.20e+00    -  3.39e-02 2.28e-02h  1
  14  0.0000000e+00 1.70e+01 1.24e+05  -4.8 6.05e+00    -  3.71e-02 6.29e-02h  1
  15  0.0000000e+00 1.62e+01 1.17e+05  -4.8 5.72e+00    -  1.84e-02 4.97e-02h  1
  16  0.0000000e+00 1.59e+01 5.64e+04  -4.9 5.66e+00    -  2.59e-02 1.84e-02h  1
  17  0.0000000e+00 1.49e+01 6.76e+05  -4.9 5.64e+00    -  1.52e-01 5.82e-02h  1
  18  0.0000000e+00 1.48e+01 1.30e+06  -4.9 5.66e+00    -  9.71e-02 9.22e-03h  1
  19  0.0000000e+00 1.32e+01 1.15e+06  -0.9 6.30e+00    -  1.10e-01 1.11e-01f  1
iter    objective    inf_pr   inf_du lg(mu)  ||d||  lg(rg) alpha_du alpha_pr  ls
  20  0.0000000e+00 1.24e+01 1.04e+06  -5.0 5.67e+00    -  1.45e-01 6.09e-02h  1
  21  0.0000000e+00 1.13e+01 2.22e+06  -1.2 6.14e+00    -  2.59e-01 8.97e-02f  1
  22  0.0000000e+00 9.55e+00 1.90e+06  -1.3 5.67e+00    -  1.41e-01 1.52e-01h  1
  23  0.0000000e+00 9.01e+00 1.64e+06  -1.4 5.28e+00    -  2.33e-01 5.58e-02h  1
  24  0.0000000e+00 8.03e+00 1.42e+06  -1.5 5.39e+00    -  1.82e-01 1.09e-01h  1
  25  0.0000000e+00 6.80e+00 1.13e+06  -1.0 5.39e+00    -  3.82e-01 1.53e-01f  1
  26  0.0000000e+00 5.28e+00 8.62e+05  -1.8 4.58e+00    -  2.79e-01 2.23e-01h  1
  27  0.0000000e+00 4.48e+00 7.42e+05  -0.2 7.30e+00    -  1.73e-01 1.51e-01f  1
  28  0.0000000e+00 3.93e+00 5.36e+05  -0.7 2.98e+00    -  6.43e-01 1.24e-01h  1
  29  0.0000000e+00 2.36e+00 3.20e+05  -1.0 2.90e+00    -  3.88e-01 3.99e-01h  1
iter    objective    inf_pr   inf_du lg(mu)  ||d||  lg(rg) alpha_du alpha_pr  ls
  30  0.0000000e+00 1.07e+00 2.08e+05  -1.0 2.18e+00    -  6.64e-01 5.45e-01h  1
  31  0.0000000e+00 3.23e-01 1.87e+05  -1.0 1.21e+00    -  8.94e-01 6.99e-01f  1
  32  0.0000000e+00 1.95e-02 3.80e+04  -2.2 2.22e-01    -  9.79e-01 9.39e-01h  1
  33  0.0000000e+00 4.73e-03 9.17e-03  -3.4 1.08e-02    -  1.00e+00 1.00e+00h  1
  34  0.0000000e+00 4.73e-03 7.21e+05  -4.8 2.91e-04    -  1.00e+00 7.90e-01h  1
  35  0.0000000e+00 4.73e-03 2.98e-05  -6.3 2.98e-05    -  1.00e+00 1.00e+00h  1
  36  0.0000000e+00 4.73e-03 1.06e-06  -7.0 3.38e-02    -  1.00e+00 1.00e+00h  1
  37  0.0000000e+00 4.73e-03 1.16e-06  -7.1 4.66e-02    -  1.00e+00 1.00e+00h  1
  38  0.0000000e+00 4.73e-03 1.12e-06  -7.1 3.40e-02    -  1.00e+00 1.00e+00h  1
  39  0.0000000e+00 4.73e-03 1.92e-05  -7.1 2.07e-05    -  1.00e+00 1.00e+00h  1
iter    objective    inf_pr   inf_du lg(mu)  ||d||  lg(rg) alpha_du alpha_pr  ls
  40  0.0000000e+00 4.73e-03 1.01e-06  -7.1 1.01e-06    -  1.00e+00 1.00e+00s 22
  41  0.0000000e+00 4.73e-03 1.94e+07  -7.1 6.33e-01    -  6.90e-01 0.00e+00S 22
  42  0.0000000e+00 1.22e-02 7.53e+05  -7.1 1.06e+00    -  9.14e-01 1.00e+00h  1
  43  0.0000000e+00 5.35e-03 5.62e-06  -7.1 6.90e-01    -  1.00e+00 1.00e+00h  1
  44  0.0000000e+00 4.73e-03 5.22e-03  -7.1 5.22e-03    -  1.00e+00 1.00e+00h  1
  45  0.0000000e+00 4.73e-03 4.14e-06  -7.1 4.23e-06    -  1.00e+00 1.00e+00h  1
  46  0.0000000e+00 4.73e-03 1.07e-06  -7.1 1.07e-06    -  1.00e+00 1.00e+00s 22
ERROR: Ipopt failed to find a solution. Return Code: 2
  47r 0.0000000e+00 4.73e-03 1.00e+03  -2.3 0.00e+00    -  0.00e+00 0.00e+00R  1
  48r 0.0000000e+00 4.73e-03 8.64e-04  -4.2 8.74e-04    -  1.00e+00 1.00e+00f  1

Number of Iterations....: 48

                                   (scaled)                 (unscaled)
Objective...............:   0.0000000000000000e+00    0.0000000000000000e+00
Dual infeasibility......:   4.2095167248480725e-06    4.2095167248480725e-06
Constraint violation....:   4.7270089376861835e-03    4.7270089376861835e-03
Complementarity.........:   2.5737430006429559e-07    2.5737430006429559e-07
Overall NLP error.......:   4.7270089376861835e-03    4.7270089376861835e-03


Number of objective function evaluations             = 93
Number of objective gradient evaluations             = 49
Number of equality constraint evaluations            = 93
Number of inequality constraint evaluations          = 93
Number of equality constraint Jacobian evaluations   = 51
Number of inequality constraint Jacobian evaluations = 51
Number of Lagrangian Hessian evaluations             = 0
Total CPU secs in IPOPT (w/o function evaluations)   =      0.834
Total CPU secs in NLP function evaluations           =      3.020

EXIT: Converged to a point of local infeasibility. Problem may be infeasible.
status -> 2

************************************************************
    IFOPT - Interface to Nonlinear Optimizers (v2.0)
                © Alexander W. Winkler
           https://github.com/ethz-adrl/ifopt
************************************************************
Legend:
c - number of variables, constraints or cost terms
i - indices of this set in overall problem
v - number of [violated variable- or constraint-bounds] or [cost term value]

                                   c             i             v 
variable-sets:
   base-lin                       306        0....305[0m           0[0m
   base-ang                       306      306....611[0m           0[0m
   ee-motion_0                     35      612....646[0m           0[0m
   ee-motion_1                     35      647....681[0m           0[0m
   ee-motion_2                     35      682....716[0m           0[0m
   ee-motion_3                     35      717....751[0m           0[0m
   ee-force_0                      72      752....823[0m           0[0m
   ee-force_1                      72      824....895[0m           0[0m
   ee-force_2                      72      896....967[0m           0[0m
   ee-force_3                      72      968...1039[0m           0[0m

constraint-sets:
   terrain-ee-motion_0             13        0.....12[0m           0[0m
   terrain-ee-motion_1             13       13.....25[0m           0[0m
   terrain-ee-motion_2             13       26.....38[0m           0[0m
   terrain-ee-motion_3             13       39.....51[0m           0[0m
   dynamic                        312       52....363[0m           0[0m
   splineacc-base-lin             147      364....510[0m           0[0m
   splineacc-base-ang             147      511....657[0m           0[0m
   rangeofmotion-0                192      658....849[0m           0[0m
   rangeofmotion-1                192      850...1041[31m           1[0m
   rangeofmotion-2                192     1042...1233[0m           0[0m
   rangeofmotion-3                192     1234...1425[0m           0[0m
   force-ee-force_0                60     1426...1485[0m           0[0m
   force-ee-force_1                60     1486...1545[0m           0[0m
   force-ee-force_2                60     1546...1605[0m           0[0m
   force-ee-force_3                60     1606...1665[0m           0[0m
   swing-ee-motion_0               16     1666...1681[0m           0[0m
   swing-ee-motion_1               16     1682...1697[0m           0[0m
   swing-ee-motion_2               16     1698...1713[0m           0[0m
   swing-ee-motion_3               16     1714...1729[0m           0[0m

cost-terms:

